
Gurobi 11.0.1 (win64) logging started Fri Mar 15 22:58:29 2024

Set parameter LogFile to value "res/logfile/neos-4387871-tavualog.txt"
Gurobi Optimizer version 11.0.1 build v11.0.1rc0 (win64 - Windows 11.0 (22621.2))

CPU model: AMD Ryzen Threadripper PRO 5975WX 32-Cores, instruction set [SSE2|AVX|AVX2]
Thread count: 32 physical cores, 64 logical processors, using up to 10 threads

Optimize a model with 14025 rows, 4004 columns and 43435 nonzeros
Model fingerprint: 0x708c2f6e
Variable types: 2004 continuous, 2000 integer (2000 binary)
Coefficient statistics:
  Matrix range     [8e-02, 5e+00]
  Objective range  [1e+00, 1e+00]
  Bounds range     [1e+00, 1e+01]
  RHS range        [1e+00, 1e+01]
Presolve removed 8334 rows and 366 columns
Presolve time: 0.08s
Presolved: 5691 rows, 3638 columns, 19274 nonzeros
Crushed 5800 out of 7512 user cuts to presolved model
Variable types: 1811 continuous, 1827 integer (1827 binary)

Root relaxation: objective 1.014385e+01, 1691 iterations, 0.05 seconds (0.07 work units)

    Nodes    |    Current Node    |     Objective Bounds      |     Work
 Expl Unexpl |  Obj  Depth IntInf | Incumbent    BestBd   Gap | It/Node Time

     0     0   10.14385    0   33          -   10.14385      -     -    0s
     0     0   13.75331    0   43          -   13.75331      -     -    0s
     0     0   15.05660    0   58          -   15.05660      -     -    0s
     0     0   15.28611    0   53          -   15.28611      -     -    0s
     0     0   15.32407    0   63          -   15.32407      -     -    0s
     0     0   15.34653    0   64          -   15.34653      -     -    0s
H    0     0                     419.5162300   15.34653  96.3%     -    0s
     0     0   17.15961    0   71  419.51623   17.15961  95.9%     -    0s
H    0     0                      39.6273600   17.40386  56.1%     -    0s
H    0     0                      38.2131500   17.40386  54.5%     -    0s
     0     0   17.40386    0   74   38.21315   17.40386  54.5%     -    0s
     0     0   17.40386    0   76   38.21315   17.40386  54.5%     -    0s
     0     0   18.34445    0   75   38.21315   18.34445  52.0%     -    0s
     0     0   18.44757    0   91   38.21315   18.44757  51.7%     -    0s
     0     0   18.47127    0   85   38.21315   18.47127  51.7%     -    0s
     0     0   18.47849    0  103   38.21315   18.47849  51.6%     -    0s
     0     0   18.81927    0   86   38.21315   18.81927  50.8%     -    0s
     0     0   18.96734    0  101   38.21315   18.96734  50.4%     -    0s
     0     0   18.97751    0   97   38.21315   18.97751  50.3%     -    0s
     0     0   18.98197    0  103   38.21315   18.98197  50.3%     -    0s
     0     0   18.99012    0   94   38.21315   18.99012  50.3%     -    0s
     0     0   19.37518    0  107   38.21315   19.37518  49.3%     -    0s
     0     0   19.69662    0   95   38.21315   19.69662  48.5%     -    0s
     0     0   19.74946    0   84   38.21315   19.74946  48.3%     -    0s
     0     0   19.75120    0   82   38.21315   19.75120  48.3%     -    0s
     0     0   19.85489    0  109   38.21315   19.85489  48.0%     -    0s
     0     0   19.91303    0   89   38.21315   19.91303  47.9%     -    0s
     0     0   19.91303    0  105   38.21315   19.91303  47.9%     -    0s
H    0     0                      37.2131500   19.91303  46.5%     -    0s
     0     0   19.91303    0  101   37.21315   19.91303  46.5%     -    0s
     0     0   19.91303    0  111   37.21315   19.91303  46.5%     -    0s
     0     0   19.96192    0  114   37.21315   19.96192  46.4%     -    0s
     0     0   20.00887    0  143   37.21315   20.00887  46.2%     -    0s
     0     0   20.04031    0  136   37.21315   20.04031  46.1%     -    0s
     0     0   20.04952    0  135   37.21315   20.04952  46.1%     -    0s
     0     0   20.05016    0  140   37.21315   20.05016  46.1%     -    0s
     0     0   20.15119    0  124   37.21315   20.15119  45.8%     -    0s
H    0     0                      35.1421000   20.18235  42.6%     -    0s
     0     0   20.22746    0  155   35.14210   20.22746  42.4%     -    0s
     0     0   20.23446    0  156   35.14210   20.23446  42.4%     -    0s
     0     0   20.23495    0  159   35.14210   20.23495  42.4%     -    0s
     0     0   20.69683    0  137   35.14210   20.69683  41.1%     -    0s
     0     0   20.81952    0  128   35.14210   20.81952  40.8%     -    0s
     0     0   20.82484    0  128   35.14210   20.82484  40.7%     -    0s
     0     0   20.82897    0  131   35.14210   20.82897  40.7%     -    0s
     0     0   20.83247    0  133   35.14210   20.83247  40.7%     -    0s
     0     0   20.83278    0  134   35.14210   20.83278  40.7%     -    0s
     0     0   21.06384    0  122   35.14210   21.06384  40.1%     -    1s
     0     0   21.08998    0  110   35.14210   21.08998  40.0%     -    1s
     0     0   21.11859    0  111   35.14210   21.11859  39.9%     -    1s
     0     0   21.14232    0  126   35.14210   21.14232  39.8%     -    1s
     0     0   21.14420    0  122   35.14210   21.14420  39.8%     -    1s
     0     0   21.26475    0  118   35.14210   21.26475  39.5%     -    1s
     0     0   21.30841    0  142   35.14210   21.30841  39.4%     -    1s
     0     0   21.32312    0  150   35.14210   21.32312  39.3%     -    1s
     0     0   21.32443    0  128   35.14210   21.32443  39.3%     -    1s
     0     0   21.49453    0  146   35.14210   21.49453  38.8%     -    1s
     0     0   21.55294    0  150   35.14210   21.55294  38.7%     -    1s
     0     0   21.56627    0  171   35.14210   21.56627  38.6%     -    1s
     0     0   21.57959    0  162   35.14210   21.57959  38.6%     -    1s
     0     0   21.58644    0  171   35.14210   21.58644  38.6%     -    1s
     0     0   21.59058    0  174   35.14210   21.59058  38.6%     -    1s
     0     0   21.59093    0  169   35.14210   21.59093  38.6%     -    1s
     0     0   21.69271    0  147   35.14210   21.69271  38.3%     -    1s
     0     0   21.78893    0  165   35.14210   21.78893  38.0%     -    1s
     0     0   21.81502    0  163   35.14210   21.81502  37.9%     -    1s
     0     0   21.81810    0  176   35.14210   21.81810  37.9%     -    1s
     0     0   22.01147    0  179   35.14210   22.01147  37.4%     -    1s
     0     0   22.07476    0  154   35.14210   22.07476  37.2%     -    1s
     0     0   22.07912    0  164   35.14210   22.07912  37.2%     -    1s
     0     0   22.22456    0  166   35.14210   22.22456  36.8%     -    1s
     0     0   22.27646    0  153   35.14210   22.27646  36.6%     -    1s
     0     0   22.28215    0  160   35.14210   22.28215  36.6%     -    1s
     0     0   22.29758    0  143   35.14210   22.29758  36.6%     -    1s
     0     0   22.29925    0  146   35.14210   22.29925  36.5%     -    1s
H    0     0                      35.1420991   22.29925  36.5%     -    1s
     0     0   22.43179    0  162   35.14210   22.43179  36.2%     -    1s
H    0     0                      34.7989400   22.44159  35.5%     -    1s
     0     0   22.46985    0  149   34.79894   22.46985  35.4%     -    1s
     0     0   22.48059    0  147   34.79894   22.48059  35.4%     -    1s
     0     0   22.48086    0  147   34.79894   22.48086  35.4%     -    1s
     0     0   22.60136    0  159   34.79894   22.60136  35.1%     -    1s
     0     0   22.63800    0  165   34.79894   22.63800  34.9%     -    1s
     0     0   22.66392    0  173   34.79894   22.66392  34.9%     -    1s
     0     0   22.66992    0  169   34.79894   22.66992  34.9%     -    1s
     0     0   22.67099    0  176   34.79894   22.67099  34.9%     -    1s
     0     0   22.75243    0  185   34.79894   22.75243  34.6%     -    1s
     0     0   22.77121    0  193   34.79894   22.77121  34.6%     -    2s
     0     0   22.78601    0  200   34.79894   22.78601  34.5%     -    2s
     0     0   22.79085    0  199   34.79894   22.79085  34.5%     -    2s
     0     0   22.79491    0  203   34.79894   22.79491  34.5%     -    2s
     0     0   22.86350    0  201   34.79894   22.86350  34.3%     -    2s
     0     0   22.90154    0  200   34.79894   22.90154  34.2%     -    2s
     0     0   22.91868    0  196   34.79894   22.91868  34.1%     -    2s
     0     0   22.93208    0  196   34.79894   22.93208  34.1%     -    2s
     0     0   22.93273    0  196   34.79894   22.93273  34.1%     -    2s
     0     0   23.16689    0  194   34.79894   23.16689  33.4%     -    2s
     0     0   23.23566    0  201   34.79894   23.23566  33.2%     -    2s
     0     0   23.24957    0  211   34.79894   23.24957  33.2%     -    2s
     0     0   23.25674    0  217   34.79894   23.25674  33.2%     -    2s
     0     0   23.25940    0  210   34.79894   23.25940  33.2%     -    2s
     0     0   23.33814    0  205   34.79894   23.33814  32.9%     -    2s
     0     0   23.39067    0  205   34.79894   23.39067  32.8%     -    2s
     0     0   23.40210    0  221   34.79894   23.40210  32.8%     -    2s
     0     0   23.40613    0  228   34.79894   23.40613  32.7%     -    2s
     0     0   23.51606    0  208   34.79894   23.51606  32.4%     -    2s
     0     0   23.55011    0  223   34.79894   23.55011  32.3%     -    2s
     0     0   23.58028    0  223   34.79894   23.58028  32.2%     -    2s
     0     0   23.58916    0  214   34.79894   23.58916  32.2%     -    2s
     0     0   23.59356    0  224   34.79894   23.59356  32.2%     -    2s
     0     0   23.67513    0  208   34.79894   23.67513  32.0%     -    2s
     0     0   23.70658    0  230   34.79894   23.70658  31.9%     -    2s
     0     0   23.71282    0  211   34.79894   23.71282  31.9%     -    2s
     0     0   23.71574    0  228   34.79894   23.71574  31.8%     -    2s
     0     0   23.77989    0  211   34.79894   23.77989  31.7%     -    2s
     0     0   23.82568    0  207   34.79894   23.82568  31.5%     -    2s
     0     0   23.86403    0  215   34.79894   23.86403  31.4%     -    2s
     0     0   23.87258    0  218   34.79894   23.87258  31.4%     -    2s
     0     0   23.87445    0  204   34.79894   23.87445  31.4%     -    2s
H    0     0                      34.7278900   23.95383  31.0%     -    3s
     0     0   23.95383    0  204   34.72789   23.95383  31.0%     -    3s
     0     0   24.01460    0  221   34.72789   24.01460  30.8%     -    3s
     0     0   24.02554    0  224   34.72789   24.02554  30.8%     -    3s
     0     0   24.02891    0  232   34.72789   24.02891  30.8%     -    3s
     0     0   24.13883    0  214   34.72789   24.13883  30.5%     -    3s
H    0     0                      34.1421000   24.14692  29.3%     -    3s
     0     0   24.20433    0  229   34.14210   24.20433  29.1%     -    3s
     0     0   24.21673    0  230   34.14210   24.21673  29.1%     -    3s
     0     0   24.22354    0  234   34.14210   24.22354  29.1%     -    3s
     0     0   24.22686    0  240   34.14210   24.22686  29.0%     -    3s
     0     0   24.32981    0  236   34.14210   24.32981  28.7%     -    3s
     0     0   24.37887    0  252   34.14210   24.37887  28.6%     -    3s
     0     0   24.38538    0  245   34.14210   24.38538  28.6%     -    3s
     0     0   24.44744    0  246   34.14210   24.44744  28.4%     -    3s
     0     0   24.46942    0  255   34.14210   24.46942  28.3%     -    3s
     0     0   24.47666    0  239   34.14210   24.47666  28.3%     -    3s
     0     0   24.56777    0  235   34.14210   24.56777  28.0%     -    3s
     0     0   24.61315    0  248   34.14210   24.61315  27.9%     -    3s
     0     0   24.63066    0  250   34.14210   24.63066  27.9%     -    3s
     0     0   24.63679    0  258   34.14210   24.63679  27.8%     -    3s
     0     0   24.68514    0  256   34.14210   24.68514  27.7%     -    3s
     0     0   24.70182    0  259   34.14210   24.70182  27.6%     -    3s
     0     0   24.70662    0  270   34.14210   24.70662  27.6%     -    3s
     0     0   24.76405    0  282   34.14210   24.76405  27.5%     -    3s
     0     0   24.76700    0  275   34.14210   24.76700  27.5%     -    4s
     0     2   24.76860    0  273   34.14210   24.76860  27.5%     -    4s
    45    56   26.42560    7  264   34.14210   26.18829  23.3%   501    5s
H  810   814                      33.5563100   26.18829  22.0%   184    7s
H  898   902                      33.5563095   26.18829  22.0%   177    8s
  1734  1753   27.45912   24  214   33.55631   26.18829  22.0%   147   10s
H 2000  1800                      33.3847300   26.18829  21.6%   140   11s
  2022  1814   30.02942   38  339   33.38473   26.47573  20.7%   139   15s
  2042  1828   31.71420  166  483   33.38473   27.08707  18.9%   137   20s
  2055  1836   31.78927   85  470   33.38473   27.62285  17.3%   137   25s
  2064  1842   29.14385   48  534   33.38473   27.85901  16.6%   136   30s
  2068  1845   32.58687  106  538   33.38473   27.97307  16.2%   136   35s
  2074  1852   28.10120   16  433   33.38473   28.00246  16.1%   169   41s
  2098  1876   29.28740   20  424   33.38473   28.44245  14.8%   196   45s
  2176  1932   30.30099   23  368   33.38473   28.52499  14.6%   252   50s
  2311  2024   31.86634   27  366   33.38473   28.52499  14.6%   295   55s
  2564  2212   31.90282   36  245   33.38473   28.52499  14.6%   327   60s
  2804  2388   32.45295   45  173   33.38473   28.52499  14.6%   336   65s
H 3046  2395                      33.3847300   28.52499  14.6%   338   68s
  3195  2415   28.70488   21  347   33.38473   28.52509  14.6%   340   71s
H 3209  2322                      33.3847300   28.52509  14.6%   342   71s
  3378  2455   29.51447   28  292   33.38473   28.52509  14.6%   364   75s
  3664  2641   30.88494   40  245   33.38473   28.52509  14.6%   379   80s
H 3930  2574                      33.3847299   28.52509  14.6%   383   84s
H 3933  2493                      33.3847294   28.52509  14.6%   383   84s
  3934  2549   31.00277   51  238   33.38473   28.52509  14.6%   384   86s
  4205  2704   31.98765   70  152   33.38473   28.66616  14.1%   390   91s
  4416  2809   30.37613   27  272   33.38473   28.66616  14.1%   396   96s
  4740  2964   32.08336   93  255   33.38473   28.97910  13.2%   394  100s
  5029  3105   32.44829   27  227   33.38473   29.13157  12.7%   393  109s
  5217  3165   30.58033   22  320   33.38473   29.13157  12.7%   392  111s
  5538  3427   31.24977   25  338   33.38473   29.13157  12.7%   395  115s
  6030  3660     cutoff   41        33.38473   29.21978  12.5%   392  120s
  6846  4098     cutoff   67        33.38473   29.30151  12.2%   389  126s
  7389  4333   29.95800   23  358   33.38473   29.37340  12.0%   389  139s
  7399  4638   30.53759   24  352   33.38473   29.37340  12.0%   389  143s
  7771  4798   31.95694   46  205   33.38473   29.37378  12.0%   386  145s
  8244  5310   31.14351   37  308   33.38473   29.45582  11.8%   391  152s
  8637  5520   31.24431   33  301   33.38473   29.47264  11.7%   389  155s
  9267  6025   30.57040   25  306   33.38473   29.50548  11.6%   388  162s
H 9301  6025                      33.3847293   29.50548  11.6%   390  162s
H 9434  6025                      33.3847286   29.50548  11.6%   388  162s
  9624  6305   32.73983   42  208   33.38473   29.52732  11.6%   387  166s
 10491  7033   29.98308   27  298   33.38473   29.54996  11.5%   386  173s
 11067  7366   31.52981   77  260   33.38473   29.57245  11.4%   381  176s
 11508  7785   31.45095   31  331   33.38473   29.58336  11.4%   382  180s
 12558  8702   32.18647   60  100   33.38473   29.61752  11.3%   381  188s
 13290  9397   31.83587   74  243   33.38473   29.64771  11.2%   375  193s
 14139  9767   32.73423   37  282   33.38473   29.67104  11.1%   367  197s
 14688 10168   30.37935   28  180   33.38473   29.68148  11.1%   368  201s
H14754 10168                      33.3847278   29.68148  11.1%   368  201s
 15222 10517     cutoff   48        33.38473   29.69695  11.0%   369  206s
 15669 11018   30.66166   41  391   33.38473   29.70018  11.0%   373  213s
 16249 11912   30.83930   33  214   33.38473   29.70999  11.0%   373  219s
 17375 12399   31.81767   64  246   33.38473   29.73020  10.9%   366  222s
 17991 12779   30.95374   31  260   33.38473   29.76471  10.8%   363  226s
 18468 13245   30.47353   48  303   33.38473   29.77566  10.8%   363  230s
 19032 13717   30.56245   32  333   33.38473   29.78404  10.8%   363  235s
 19593 14359   31.19225   27  276   33.38473   29.78536  10.8%   363  240s
 20370 15110   32.22697   48  196   33.38473   29.79956  10.7%   362  245s
 21348 15745   32.37745   65  224   33.38473   29.81612  10.7%   357  250s
 22139 16637   30.64556   44  208   33.38473   29.83611  10.6%   355  255s
 23207 17173   31.76784  117   97   33.38473   29.84560  10.6%   349  260s
 23882 17782   32.09135   58  236   33.38473   29.86186  10.6%   349  265s
 24625 18437   31.82001   57  218   33.38473   29.87160  10.5%   348  271s
H25065 18437                      33.3847277   29.87837  10.5%   347  271s
 25467 19076   30.63947   28  275   33.38473   29.88289  10.5%   346  276s
 26349 19765   31.47723   55  266   33.38473   29.89542  10.5%   345  282s
 27262 20224   32.66966   46  231   33.38473   29.90707  10.4%   344  289s
 28001 20997   31.98636   28  255   33.38473   29.91933  10.4%   346  295s
 29046 21940   32.78248   79  266   33.38473   29.92743  10.4%   344  301s
 30235 22611   31.60837   29  224   33.38473   29.94342  10.3%   341  307s
 31155 23196   31.79755   32  331   33.38473   29.95645  10.3%   341  314s
 31962 23889   30.73857   39  348   33.38473   29.95940  10.3%   342  320s
H32931 23889                      33.3847260   29.95940  10.3%   342  344s
 32932 23890   31.51058   57  275   33.38473   29.95940  10.3%   342  348s
H32934 22696                      33.3847214   29.95940  10.3%   342  349s
 32937 22698   31.40558   79  331   33.38472   29.95940  10.3%   342  350s
 32945 22704   31.84141   57  412   33.38472   29.95940  10.3%   342  355s
 32953 22709   32.16073   59  450   33.38472   30.83873  7.63%   342  360s
 32961 22714   32.58639   32  468   33.38472   31.40337  5.93%   342  365s
 32970 22720   32.10544   55  449   33.38472   32.10544  3.83%   341  371s
 32976 22724   32.35174  112  459   33.38472   32.26755  3.35%   341  375s
 32981 22728   32.72784   60  509   33.38472   32.48279  2.70%   341  380s
 32988 22732   32.65741   60  533   33.38472   32.64175  2.23%   341  385s
 32994 22736   32.71606   39  524   33.38472   32.71606  2.00%   341  390s
 33007 22746   32.73576   76  472   33.38472   32.73576  1.94%   344  395s
 33021 22757   33.01552   50  316   33.38472   33.01552  1.11%   345  400s

Cutting planes:
  Gomory: 10
  Cover: 29
  MIR: 35
  Flow cover: 57
  Network: 49
  Relax-and-lift: 4

Explored 33048 nodes (11434613 simplex iterations) in 404.63 seconds (1082.42 work units)
Thread count was 10 (of 64 available processors)

Solution count 10: 33.3847 33.3847 33.3847 ... 34.7279

Optimal solution found (tolerance 1.00e-04)
Best objective 3.338473000000e+01, best bound 3.338473000000e+01, gap 0.0000%

User-callback calls 77492, time in user-callback 0.00 sec
